(declare-fun h () String)
(declare-fun a () String)
(declare-fun e () String)
(declare-fun c () String)
(declare-fun g () String)
(declare-fun d () String)
(declare-fun b () String)
(assert (= (str.++ c (str.++ "a" "c")) (str.++ "f" (str.++ c a))))
(assert (= (str.++ "a" (str.++ "h" g)) (str.++ d (str.++ g h))))
(assert (= (str.++ "g" (str.++ d a)) (str.++ h (str.++ e b))))
(check-sat)
(get-model)